
Gurobi 13.0.2 (win64) logging started Fri Jul 24 04:44:53 2026

Set parameter LogFile to value "E:\codes\ExactEBRP\results\gf_c0_mechanism_transfer_c5_round30\development\V12_M1__c4_candidate__60s\external\native_logs\L3.1_lp.gurobi.log"
Gurobi Optimizer version 13.0.2 build v13.0.2rc1 (win64 - Windows 10.0 (19045.2))

CPU model: 12th Gen Intel(R) Core(TM) i7-12700KF, instruction set [SSE2|AVX|AVX2]
Thread count: 12 physical cores, 20 logical processors, using up to 1 threads

Non-default parameters:
TimeLimit  47.4410715
MIPGap  0
MIPGapAbs  0
LogToConsole  0
Threads  1

Optimize a model with 6226 rows, 648 columns and 59367 nonzeros (Min)
Model fingerprint: 0x13213c32
Model has 13 linear objective coefficients
Coefficient statistics:
  Matrix range     [2e-03, 1e+05]
  Objective range  [2e-03, 1e+00]
  Bounds range     [1e-01, 8e+01]
  RHS range        [3e-02, 1e+06]

Presolve removed 328 rows and 38 columns
Presolve time: 0.02s
Presolved: 5898 rows, 611 columns, 57685 nonzeros

Iteration    Objective       Primal Inf.    Dual Inf.      Time
       0    3.1698890e-01   1.322916e+02   0.000000e+00      0s
Warning: very big Kappa = 1.65305e+12, try parameter NumericFocus

Solved in 584 iterations and 0.05 seconds (0.17 work units)
Infeasible model

User-callback calls 725, time in user-callback 0.00 sec
